5	6	7	8	9	10	11	12	13	14	15	16	17	18	19	20	21	22	23	24
	2	2	6	2	6	0	0	0	0	2	2	2	2	5	4	4	3	7	2
	8	10	14	10	14	6	6	6	6	6	6	6	6	9	10	10	11	17
	14	18	22	18	22	12	12	12	12	10	10	10	10	13	16	16	16	32
	22	26	30	26	30	18	18	18	18	14	14	14	14	17	22	22	23	47
	30	34	38	34	36	24	24	24	24	18	18	18	18	21	28	28	28
	38	42	46	42	42	30	30	30	30	22	22	22	22	25	34	34	35
	46	50	54	50	48	36	36	36	36	26	26	26	26	28	40	40	43
	54	58		58	54	42	42	42	42	30	30	30	30	34	46	48	51
						48	48	48	48	34	34	34	34	40	52	55	59
						54	54	54	54	38	38	38	40	46	58
									59	42	42	42	46	52
										46	46	46	52	58
										50	50	50	58
										54	54	54
										58	58	58
